benchmarks/crosswords/mzn/crossword3_23.ozn
output ([(((("\n"++problem_name)++"\n")++"L:")++show(L))++"\n"]++[if problem[i,j]==0 then "*" else show(letters[fix(L[problem[i,j]])]) endif++if j==cols then "\n" else "" endif | i in 1..rows, j in 1..cols, ])++["\n"];
int: rows = 19;
int: cols = 19;
array [1..rows,1..cols] of int: problem = [|1,2,3,4,5,0,6,7,8,9,10,11,12,0,13,14,15,16,17|18,19,20,21,22,0,23,24,25,26,27,28,29,0,30,31,32,33,34|35,36,37,38,39,0,40,41,42,43,44,45,46,0,47,48,49,50,51|52,53,54,0,55,56,57,0,58,59,60,0,61,62,63,0,64,65,66|67,68,69,70,0,71,72,73,0,0,0,74,75,76,0,77,78,79,80|0,0,0,81,82,83,84,85,86,87,88,89,90,91,92,93,0,0,0|94,95,96,97,98,99,0,100,101,102,103,104,0,105,106,107,108,109,110|111,112,113,0,114,115,116,0,117,118,119,0,120,121,122,0,123,124,125|126,127,128,129,0,130,131,132,133,0,134,135,136,137,0,138,139,140,141|142,143,144,145,0,146,147,148,0,0,0,149,150,151,0,152,153,154,155|156,157,158,159,0,160,161,162,163,0,164,165,166,167,0,168,169,170,171|172,173,174,0,175,176,177,0,178,179,180,0,181,182,183,0,184,185,186|187,188,189,190,191,192,0,193,194,195,196,197,0,198,199,200,201,202,203|0,0,0,204,205,206,207,208,209,210,211,212,213,214,215,216,0,0,0|217,218,219,220,0,221,222,223,0,0,0,224,225,226,0,227,228,229,230|231,232,233,0,234,235,236,0,237,238,239,0,240,241,242,0,243,244,245|246,247,248,249,250,0,251,252,253,254,255,256,257,0,258,259,260,261,262|263,264,265,266,267,0,268,269,270,271,272,273,274,0,275,276,277,278,279|280,281,282,283,284,0,285,286,287,288,289,290,291,0,292,293,294,295,296|];
int: num_letters = 26;
array [1..num_letters] of string: letters = ["a","b","c","d","e","f","g","h","i","j","k","l","m","n","o","p","q","r","s","t","u","v","w","x","y","z"];
int: N = 296;
array [0..N] of int: L;
string: problem_name = "19.04, 19 x 19";
